% Generated FlatZinc statistics:
%%%mzn-stat: paths=0
%%%mzn-stat: flatIntVars=172
%%%mzn-stat: flatIntConstraints=4846
%%%mzn-stat: method="maximize"
%%%mzn-stat: flatTime=0.170163
%%%mzn-stat-end

objective = 40;
heart = array2d(1..18, 1..18, [
1, 0, 0, 0, 0, 0, 0, 0, 0, 0, 0, 0, 0, 0, 0, 0, 0, 0, 
1, 0, 0, 0, 0, 0, 0, 0, 0, 0, 0, 0, 0, 0, 0, 0, 0, 0, 
1, 0, 0, 0, 0, 0, 0, 0, 0, 0, 0, 0, 0, 0, 0, 0, 0, 0, 
1, 0, 0, 0, 0, 0, 0, 0, 0, 0, 0, 0, 0, 0, 0, 0, 0, 0, 
1, 0, 0, 0, 0, 0, 0, 0, 0, 0, 0, 0, 0, 0, 0, 0, 0, 0, 
1, 0, 0, 0, 0, 0, 0, 0, 0, 0, 0, 0, 0, 0, 0, 0, 0, 0, 
1, 0, 0, 0, 0, 0, 0, 0, 0, 0, 0, 0, 0, 0, 0, 0, 0, 0, 
1, 0, 0, 0, 0, 0, 0, 0, 0, 0, 0, 0, 0, 0, 0, 0, 0, 0, 
1, 0, 0, 0, 0, 0, 0, 0, 0, 0, 0, 0, 0, 0, 0, 0, 0, 0, 
1, 0, 0, 0, 0, 0, 0, 0, 0, 0, 0, 0, 0, 0, 0, 0, 0, 0, 
1, 0, 0, 0, 0, 0, 0, 0, 0, 0, 0, 0, 0, 0, 0, 0, 0, 0, 
1, 0, 0, 0, 0, 0, 0, 0, 0, 0, 0, 0, 0, 0, 0, 0, 0, 0, 
1, 0, 0, 0, 0, 0, 0, 0, 0, 0, 0, 0, 0, 0, 0, 0, 0, 0, 
1, 0, 0, 0, 0, 0, 0, 0, 0, 0, 0, 0, 0, 0, 0, 0, 0, 0, 
0, 1, 1, 1, 1, 1, 0, 0, 0, 1, 1, 1, 1, 1, 1, 0, 0, 0, 
1, 0, 0, 0, 0, 0, 0, 0, 0, 0, 0, 0, 0, 0, 0, 0, 0, 0, 
0, 1, 0, 0, 0, 0, 1, 1, 0, 1, 1, 0, 0, 0, 0, 1, 1, 0, 
0, 0, 1, 0, 0, 0, 1, 0, 1, 1, 0, 1, 0, 0, 0, 1, 0, 1
]);
%%   1 
%%   1 0 
%%   1 0 0 
%%   1 0 0 0 
%%   1 0 0 0 0 
%%   1 0 0 0 0 0 
%%   1 0 0 0 0 0 0 
%%   1 0 0 0 0 0 0 0 
%%   1 0 0 0 0 0 0 0 0 
%%   1 0 0 0 0 0 0 0 0 0 
%%   1 0 0 0 0 0 0 0 0 0 0 
%%   1 0 0 0 0 0 0 0 0 0 0 0 
%%   1 0 0 0 0 0 0 0 0 0 0 0 0 
%%   1 0 0 0 0 0 0 0 0 0 0 0 0 0 
%%   0 1 1 1 1 1 0 0 0 1 1 1 1 1 1 
%%   1 0 0 0 0 0 0 0 0 0 0 0 0 0 0 0 
%%   0 1 0 0 0 0 1 1 0 1 1 0 0 0 0 1 1 
%%   0 0 1 0 0 0 1 0 1 1 0 1 0 0 0 1 0 1 
----------
%%%mzn-stat: initTime=0.016974
%%%mzn-stat: solveTime=1199.83
%%%mzn-stat: solutions=8
%%%mzn-stat: variables=325
%%%mzn-stat: propagators=4846
%%%mzn-stat: propagations=25374104552
%%%mzn-stat: nodes=479712856
%%%mzn-stat: failures=239856385
%%%mzn-stat: restarts=0
%%%mzn-stat: peakDepth=48
%%%mzn-stat-end
%%%mzn-stat: nSolutions=1
%%%mzn-stat-end
